g3 1 1 0	# problem ethyleneoxide
 2 0 14 0 0 	# vars, constraints, objectives, ranges, eqns
 0 13 0 0 0 0	# nonlinear constrs, objs; ccons: lin, nonlin, nd, nzlb
 0 0	# network constraints: nonlinear, linear
 0 2 0 	# nonlinear vars in constraints, objectives, both
 0 0 0 1	# linear network variables; functions; arith, flags
 0 0 0 0 0 	# discrete variables: binary, integer, nonlinear (b,c,o)
 0 20 	# nonzeros in Jacobian, obj. gradient
 0 0	# max name lengths: constraints, variables
 0 0 0 0 0	# common exprs: b,c,o,c1,o1
O0 0
o0
o54
5
o43
v0
o2
n3.0
o43
v1
o2
n6.79
o43
o0
o16
o44
o2
n-2.8363047001620743
v1
n1
o2
n4.53
o43
o0
o16
o44
o2
n-4.627655037106543
v1
n1
o2
n3.68
o43
o0
o16
o44
o2
n-9.532542864454491
v1
n1
n-3.90644775
O1 0
o5
v0
n-1.0
O2 0
o16
o5
v0
n-2.0
O3 0
o0
o54
4
o2
n3.0
o5
v1
n-1.0
o2
o2
n35.07975774119253
o5
o0
o16
o44
o2
n-9.532542864454491
v1
n1.0
n-1.0
o44
o2
n-9.532542864454491
v1
o2
o2
n19.258508914100485
o5
o0
o16
o44
o2
n-2.8363047001620743
v1
n1.0
n-1.0
o44
o2
n-2.8363047001620743
v1
o2
o2
n20.96327731809264
o5
o0
o16
o44
o2
n-4.627655037106543
v1
n1.0
n-1.0
o44
o2
n-4.627655037106543
v1
n4.0000956
O4 0
o54
7
o2
n-3.0
o5
v1
n-2.0
o2
o2
n-334.39929434259705
o5
o0
o16
o44
o2
n-9.532542864454491
v1
n1.0
n-1.0
o44
o2
n-9.532542864454491
v1
o2
o2
n-334.39929434259705
o5
o0
o16
o44
o2
n-9.532542864454491
v1
n1.0
n-2.0
o44
o2
n-19.065085728908983
v1
o2
o2
n-97.01081587533274
o5
o0
o16
o44
o2
n-4.627655037106543
v1
n1.0
n-1.0
o44
o2
n-4.627655037106543
v1
o2
o2
n-97.01081587533274
o5
o0
o16
o44
o2
n-4.627655037106543
v1
n1.0
n-2.0
o44
o2
n-9.255310074213085
v1
o2
o2
n-54.62299935117641
o5
o0
o16
o44
o2
n-2.8363047001620743
v1
n1.0
n-1.0
o44
o2
n-2.8363047001620743
v1
o2
o2
n-54.62299935117641
o5
o0
o16
o44
o2
n-2.8363047001620743
v1
n1.0
n-2.0
o44
o2
n-5.6726094003241485
v1
O5 0
o54
16
o2
o2
n0.0300676
o5
v0
n4
v1
o2
o2
n2.1629
v0
o5
v1
n0.41
o2
o2
n-2.72041
v0
o5
v1
n0.79
o2
o2
n-0.53931
o5
v0
n2
o5
v1
n1.06
o2
o2
n0.181051
o5
v0
n3
o5
v1
n0.58
o2
o2
o2
n-2.61292
v0
o5
v1
n2.0
o44
o16
o5
v0
n2
o2
o2
o2
n-2.08004
o5
v0
n3
o5
v1
n2.2
o44
o16
o5
v0
n2
o2
o2
o2
n0.3169968
o5
v0
n2
o5
v1
n0.73
o44
o2
n-1.0
v0
o2
o2
o2
n-1.6532
o5
v0
n2
o5
v1
n2.4
o44
o16
o5
v0
n2
o2
o2
o2
n-0.01981719
o5
v0
n7
o5
v1
n0.97
o44
o2
n-1.0
v0
o2
o2
o2
n3.34387
v0
o5
v1
n1.87
o44
o0
o2
n-1.02
o5
o0
v0
n-0.705
n2
o2
n-0.62
o5
o0
v1
n-0.847
n2
o2
o2
o2
n-0.950671
v0
o5
v1
n2.08
o44
o0
o2
n-1.55
o5
o0
v0
n-0.821
n2
o2
n-1.11
o5
o0
v1
n-0.34
n2
o2
o2
o2
n-0.445528
o5
v0
n3
o5
v1
n2.8
o44
o0
o2
n-1.44
o5
o0
v0
n-0.791
n2
o2
n-0.62
o5
o0
v1
n-0.265
n2
o2
o2
o2
n-0.005409938
o5
v0
n3
o5
v1
n0.97
o44
o0
o2
n-14
o5
o0
v0
n-1.08
n2
o2
n-368
o5
o0
v1
n-1.13
n2
o2
o2
o2
n-0.0638824
o5
v0
n2
o5
v1
n3.15
o44
o0
o2
n-1.63
o5
o0
v0
n-1.64
n2
o2
n-0.66
o5
o0
v1
n-0.36
n2
o2
o2
o2
n-0.093912
v0
o5
v1
n0.7
o44
o0
o2
n-1.9
o5
o0
v0
n-1.51
n2
o2
n-1.87
o5
o0
v1
n-1.05
n2
O6 0
o54
27
o2
n2.1629
o5
v1
n0.41
o2
n-2.72041
o5
v1
n0.79
o2
o2
n0.1202704
v1
o5
v0
n3.0
o2
o2
n0.543153
o5
v0
n2.0
o5
v1
n0.58
o2
o2
n3.34387
o5
v1
n1.87
o44
o0
o2
n-1.02
o5
o0
v0
n-0.705
n2.0
o2
n-0.62
o5
o0
v1
n-0.847
n2.0
o2
o2
n-0.093912
o5
v1
n0.7
o44
o0
o2
n-1.87
o5
o0
v1
n-1.05
n2.0
o2
n-1.9
o5
o0
v0
n-1.51
n2.0
o2
o2
n-1.07862
v0
o5
v1
n1.06
o2
o2
n-2.61292
o5
v1
n2.0
o44
o16
o5
v0
n2.0
o2
o2
n-0.950671
o5
v1
n2.08
o44
o0
o2
n-1.11
o5
o0
v1
n-0.34
n2.0
o2
n-1.55
o5
o0
v0
n-0.821
n2.0
o2
o2
o2
n3.3064
o5
v0
n3.0
o5
v1
n2.4
o44
o16
o5
v0
n2.0
o2
o2
o2
n0.01981719
o5
v0
n7.0
o5
v1
n0.97
o44
o2
n-1.0
v0
o2
o2
o2
n5.22584
o5
v0
n2.0
o5
v1
n2.0
o44
o16
o5
v0
n2.0
o2
o2
o2
n4.16008
o5
v0
n4.0
o5
v1
n2.2
o44
o16
o5
v0
n2.0
o2
o2
o2
n0.6339936
v0
o5
v1
n0.73
o44
o2
n-1.0
v0
o2
o2
o2
n-0.1277648
v0
o5
v1
n3.15
o44
o0
o2
n-1.63
o5
o0
v0
n-1.64
n2.0
o2
n-0.66
o5
o0
v1
n-0.36
n2.0
o2
o2
o2
n-3.3064
v0
o5
v1
n2.4
o44
o16
o5
v0
n2.0
o2
o2
o2
n-0.016229814000000002
o5
v0
n2.0
o5
v1
n0.97
o44
o0
o2
n-368.0
o5
o0
v1
n-1.13
n2.0
o2
n-14.0
o5
o0
v0
n-1.08
n2.0
o2
o2
o2
n-0.13872033
o5
v0
n6.0
o5
v1
n0.97
o44
o2
n-1.0
v0
o2
o2
o2
n-6.240119999999999
o5
v0
n2.0
o5
v1
n2.2
o44
o16
o5
v0
n2.0
o2
o2
o2
n-0.3169968
o5
v0
n2.0
o5
v1
n0.73
o44
o2
n-1.0
v0
o2
o2
o2
n-1.336584
o5
v0
n2.0
o5
v1
n2.8
o44
o0
o2
n-1.44
o5
o0
v0
n-0.791
n2.0
o2
n-0.62
o5
o0
v1
n-0.265
n2.0
o2
o2
o2
o2
n3.34387
v0
o5
v1
n1.87
o0
o2
n-2.04
v0
n1.4382
o44
o0
o2
n-1.02
o5
o0
v0
n-0.705
n2.0
o2
n-0.62
o5
o0
v1
n-0.847
n2.0
o2
o2
o2
o2
n-0.093912
v0
o5
v1
n0.7
o0
o2
n-3.8
v0
n5.7379999999999995
o44
o0
o2
n-1.87
o5
o0
v1
n-1.05
n2.0
o2
n-1.9
o5
o0
v0
n-1.51
n2.0
o2
o2
o2
o2
n-0.0638824
o5
v0
n2.0
o5
v1
n3.15
o0
o2
n-3.26
v0
n5.346399999999999
o44
o0
o2
n-1.63
o5
o0
v0
n-1.64
n2.0
o2
n-0.66
o5
o0
v1
n-0.36
n2.0
o2
o2
o2
o2
n-0.950671
v0
o5
v1
n2.08
o0
o2
n-3.1
v0
n2.5451
o44
o0
o2
n-1.11
o5
o0
v1
n-0.34
n2.0
o2
n-1.55
o5
o0
v0
n-0.821
n2.0
o2
o2
o2
o2
n-0.005409938
o5
v0
n3.0
o5
v1
n0.97
o0
o2
n-28.0
v0
n30.240000000000002
o44
o0
o2
n-368.0
o5
o0
v1
n-1.13
n2.0
o2
n-14.0
o5
o0
v0
n-1.08
n2.0
o2
o2
o2
o2
n-0.445528
o5
v0
n3.0
o5
v1
n2.8
o0
o2
n-2.88
v0
n2.27808
o44
o0
o2
n-1.44
o5
o0
v0
n-0.791
n2.0
o2
n-0.62
o5
o0
v1
n-0.265
n2.0
O7 0
o54
45
o2
n-1.07862
o5
v1
n1.06
o2
o2
n1.086306
o5
v1
n0.58
v0
o2
o2
n0.3608112
v1
o5
v0
n2.0
o2
o2
n0.6339936
o5
v1
n0.73
o44
o2
n-1.0
v0
o2
o2
n-0.1277648
o5
v1
n3.15
o44
o0
o2
n-1.63
o5
o0
v0
n-1.64
n2.0
o2
n-0.66
o5
o0
v1
n-0.36
n2.0
o2
o2
n-3.3064
o5
v1
n2.4
o44
o16
o5
v0
n2.0
o2
o2
o2
n1.28312064
o5
v1
n2.8
o5
v0
n3.0
o44
o0
o2
n-1.44
o5
o0
v0
n-0.791
n2.0
o2
n-0.62
o5
o0
v1
n-0.265
n2.0
o2
o2
o2
n0.208256624
o5
v1
n3.15
o5
v0
n2.0
o44
o0
o2
n-1.63
o5
o0
v0
n-1.64
n2.0
o2
n-0.66
o5
o0
v1
n-0.36
n2.0
o2
o2
o2
n29.120559999999998
o5
v1
n2.2
o5
v0
n3.0
o44
o16
o5
v0
n2.0
o2
o2
o2
n0.27744066
o5
v1
n0.97
o5
v0
n6.0
o44
o2
n-1.0
v0
o2
o2
o2
n3.34387
o5
v1
n1.87
o0
o2
n-2.04
v0
n1.4382
o44
o0
o2
n-1.02
o5
o0
v0
n-0.705
n2.0
o2
n-0.62
o5
o0
v1
n-0.847
n2.0
o2
o2
o2
n16.532
o5
v1
n2.4
o5
v0
n2.0
o44
o16
o5
v0
n2.0
o2
o2
o2
n0.151478264
o5
v1
n0.97
o5
v0
n3.0
o44
o0
o2
n-14.0
o5
o0
v0
n-1.08
n2.0
o2
n-368.0
o5
o0
v1
n-1.13
n2.0
o2
o2
o2
n0.3169968
o5
v1
n0.73
o5
v0
n2.0
o44
o2
n-1.0
v0
o2
o2
o2
n0.35686559999999995
v0
o5
v1
n0.7
o44
o0
o2
n-1.87
o5
o0
v1
n-1.05
n2.0
o2
n-1.9
o5
o0
v0
n-1.51
n2.0
o2
o2
o2
n0.35686559999999995
o5
v1
n0.7
o0
v0
n-1.51
o44
o0
o2
n-1.87
o5
o0
v1
n-1.05
n2.0
o2
n-1.9
o5
o0
v0
n-1.51
n2.0
o2
o2
o2
n2.9470801000000004
v0
o5
v1
n2.08
o44
o0
o2
n-1.11
o5
o0
v1
n-0.34
n2.0
o2
n-1.55
o5
o0
v0
n-0.821
n2.0
o2
o2
o2
n2.9470801000000004
o5
v1
n2.08
o0
v0
n-0.821
o44
o0
o2
n-1.11
o5
o0
v1
n-0.34
n2.0
o2
n-1.55
o5
o0
v0
n-0.821
n2.0
o2
o2
o2
n15.67752
o5
v1
n2.0
v0
o44
o16
o5
v0
n2.0
o2
o2
o2
n-0.093912
o5
v1
n0.7
o0
o2
n-3.8
v0
n5.7379999999999995
o44
o0
o2
n-1.87
o5
o0
v1
n-1.05
n2.0
o2
n-1.9
o5
o0
v0
n-1.51
n2.0
o2
o2
o2
n-6.6128
o5
v1
n2.4
o5
v0
n4.0
o44
o16
o5
v0
n2.0
o2
o2
o2
n-0.01981719
o5
v1
n0.97
o5
v0
n7.0
o44
o2
n-1.0
v0
o2
o2
o2
n-6.8214948
v0
o5
v1
n1.87
o44
o0
o2
n-1.02
o5
o0
v0
n-0.705
n2.0
o2
n-0.62
o5
o0
v1
n-0.847
n2.0
o2
o2
o2
n-6.8214948
o5
v1
n1.87
o0
v0
n-0.705
o44
o0
o2
n-1.02
o5
o0
v0
n-0.705
n2.0
o2
n-0.62
o5
o0
v1
n-0.847
n2.0
o2
o2
o2
n-0.032459628000000004
o5
v1
n0.97
v0
o44
o0
o2
n-14.0
o5
o0
v0
n-1.08
n2.0
o2
n-368.0
o5
o0
v1
n-1.13
n2.0
o2
o2
o2
n-10.45168
o5
v1
n2.0
o5
v0
n3.0
o44
o16
o5
v0
n2.0
o2
o2
o2
n-12.480239999999998
o5
v1
n2.2
v0
o44
o16
o5
v0
n2.0
o2
o2
o2
n-0.950671
o5
v1
n2.08
o0
o2
n-3.1
v0
n2.5451
o44
o0
o2
n-1.11
o5
o0
v1
n-0.34
n2.0
o2
n-1.55
o5
o0
v0
n-0.821
n2.0
o2
o2
o2
n-8.32016
o5
v1
n2.2
o5
v0
n5.0
o44
o16
o5
v0
n2.0
o2
o2
o2
n-0.6339936
v0
o5
v1
n0.73
o44
o2
n-1.0
v0
o2
o2
o2
n-0.6339936
o5
v1
n0.73
v0
o44
o2
n-1.0
v0
o2
o2
o2
n-2.673168
o5
v1
n2.8
v0
o44
o0
o2
n-1.44
o5
o0
v0
n-0.791
n2.0
o2
n-0.62
o5
o0
v1
n-0.265
n2.0
o2
o2
o2
n-0.83232198
o5
v1
n0.97
o5
v0
n5.0
o44
o2
n-1.0
v0
o2
o2
o2
o2
n3.8493619199999998
o5
v1
n2.8
o5
v0
n2.0
o0
v0
n-0.791
o44
o0
o2
n-1.44
o5
o0
v0
n-0.791
n2.0
o2
n-0.62
o5
o0
v1
n-0.265
n2.0
o2
o2
o2
o2
n0.416513248
v0
o5
v1
n3.15
o0
v0
n-1.64
o44
o0
o2
n-1.63
o5
o0
v0
n-1.64
n2.0
o2
n-0.66
o5
o0
v1
n-0.36
n2.0
o2
o2
o2
o2
n0.45443479200000003
o5
v1
n0.97
o5
v0
n2.0
o0
v0
n-1.08
o44
o0
o2
n-14.0
o5
o0
v0
n-1.08
n2.0
o2
n-368.0
o5
o0
v1
n-1.13
n2.0
o2
o2
o2
o2
n-0.1277648
o5
v1
n3.15
v0
o0
o2
n-3.26
v0
n5.346399999999999
o44
o0
o2
n-1.63
o5
o0
v0
n-1.64
n2.0
o2
n-0.66
o5
o0
v1
n-0.36
n2.0
o2
o2
o2
o2
n-0.016229814000000002
o5
v1
n0.97
o5
v0
n2.0
o0
o2
n-28.0
v0
n30.240000000000002
o44
o0
o2
n-14.0
o5
o0
v0
n-1.08
n2.0
o2
n-368.0
o5
o0
v1
n-1.13
n2.0
o2
o2
o2
o2
n-1.336584
o5
v1
n2.8
o5
v0
n2.0
o0
o2
n-2.88
v0
n2.27808
o44
o0
o2
n-1.44
o5
o0
v0
n-0.791
n2.0
o2
n-0.62
o5
o0
v1
n-0.265
n2.0
o2
o2
o2
o2
o2
n1.28312064
o5
v1
n2.8
o5
v0
n3.0
o0
v0
n-0.791
o0
o2
n-2.88
v0
n2.27808
o44
o0
o2
n-1.44
o5
o0
v0
n-0.791
n2.0
o2
n-0.62
o5
o0
v1
n-0.265
n2.0
o2
o2
o2
o2
o2
n0.208256624
o5
v1
n3.15
o5
v0
n2.0
o0
v0
n-1.64
o0
o2
n-3.26
v0
n5.346399999999999
o44
o0
o2
n-1.63
o5
o0
v0
n-1.64
n2.0
o2
n-0.66
o5
o0
v1
n-0.36
n2.0
o2
o2
o2
o2
o2
n0.151478264
o5
v1
n0.97
o5
v0
n3.0
o0
v0
n-1.08
o0
o2
n-28.0
v0
n30.240000000000002
o44
o0
o2
n-14.0
o5
o0
v0
n-1.08
n2.0
o2
n-368.0
o5
o0
v1
n-1.13
n2.0
o2
o2
o2
o2
o2
n0.35686559999999995
v0
o5
v1
n0.7
o0
v0
n-1.51
o0
o2
n-3.8
v0
n5.7379999999999995
o44
o0
o2
n-1.87
o5
o0
v1
n-1.05
n2.0
o2
n-1.9
o5
o0
v0
n-1.51
n2.0
o2
o2
o2
o2
o2
n2.9470801000000004
v0
o5
v1
n2.08
o0
v0
n-0.821
o0
o2
n-3.1
v0
n2.5451
o44
o0
o2
n-1.11
o5
o0
v1
n-0.34
n2.0
o2
n-1.55
o5
o0
v0
n-0.821
n2.0
o2
o2
o2
o2
o2
n-6.8214948
v0
o5
v1
n1.87
o0
v0
n-0.705
o0
o2
n-2.04
v0
n1.4382
o44
o0
o2
n-1.02
o5
o0
v0
n-0.705
n2.0
o2
n-0.62
o5
o0
v1
n-0.847
n2.0
O8 0
o54
22
o2
n0.0300676
o5
v0
n4.0
o2
o2
n0.10500957999999999
o5
v0
n3.0
o5
v1
n-0.42000000000000004
o2
o2
n0.8867889999999999
v0
o5
v1
n-0.5900000000000001
o2
o2
n-2.1491239
v0
o5
v1
n-0.20999999999999996
o2
o2
n-0.5716686
o5
v0
n2.0
o5
v1
n0.06000000000000005
o2
o2
o2
n0.231407664
o5
v0
n2.0
o5
v1
n-0.27
o44
o2
n-1.0
v0
o2
o2
o2
n6.253036900000001
v0
o5
v1
n0.8700000000000001
o44
o0
o2
n-1.02
o5
o0
v0
n-0.705
n2.0
o2
n-0.62
o5
o0
v1
n-0.847
n2.0
o2
o2
o2
n-0.00524763986
o5
v0
n3.0
o5
v1
n-0.030000000000000027
o44
o0
o2
n-368.0
o5
o0
v1
n-1.13
n2.0
o2
n-14.0
o5
o0
v0
n-1.08
n2.0
o2
o2
o2
n-3.9676799999999997
o5
v0
n2.0
o5
v1
n1.4
o44
o16
o5
v0
n2.0
o2
o2
o2
n-4.576088
o5
v0
n3.0
o5
v1
n1.2000000000000002
o44
o16
o5
v0
n2.0
o2
o2
o2
n-0.0192226743
o5
v0
n7.0
o5
v1
n-0.030000000000000027
o44
o2
n-1.0
v0
o2
o2
o2
n-1.2474783999999999
o5
v0
n3.0
o5
v1
n1.7999999999999998
o44
o0
o2
n-1.44
o5
o0
v0
n-0.791
n2.0
o2
n-0.62
o5
o0
v1
n-0.265
n2.0
o2
o2
o2
n-5.22584
v0
v1
o44
o16
o5
v0
n2.0
o2
o2
o2
n-0.06573839999999999
v0
o5
v1
n-0.30000000000000004
o44
o0
o2
n-1.87
o5
o0
v1
n-1.05
n2.0
o2
n-1.9
o5
o0
v0
n-1.51
n2.0
o2
o2
o2
n-0.20122956
o5
v0
n2.0
o5
v1
n2.15
o44
o0
o2
n-1.63
o5
o0
v0
n-1.64
n2.0
o2
n-0.66
o5
o0
v1
n-0.36
n2.0
o2
o2
o2
n-1.97739568
v0
o5
v1
n1.08
o44
o0
o2
n-1.11
o5
o0
v1
n-0.34
n2.0
o2
n-1.55
o5
o0
v0
n-0.821
n2.0
o2
o2
o2
o2
n3.34387
v0
o5
v1
n1.87
o0
o2
n-1.24
v1
n1.0502799999999999
o44
o0
o2
n-1.02
o5
o0
v0
n-0.705
n2.0
o2
n-0.62
o5
o0
v1
n-0.847
n2.0
o2
o2
o2
o2
n-0.093912
v0
o5
v1
n0.7
o0
o2
n-3.74
v1
n3.9270000000000005
o44
o0
o2
n-1.87
o5
o0
v1
n-1.05
n2.0
o2
n-1.9
o5
o0
v0
n-1.51
n2.0
o2
o2
o2
o2
n-0.0638824
o5
v0
n2.0
o5
v1
n3.15
o0
o2
n-1.32
v1
n0.4752
o44
o0
o2
n-1.63
o5
o0
v0
n-1.64
n2.0
o2
n-0.66
o5
o0
v1
n-0.36
n2.0
o2
o2
o2
o2
n-0.950671
v0
o5
v1
n2.08
o0
o2
n-2.22
v1
n0.7548000000000001
o44
o0
o2
n-1.11
o5
o0
v1
n-0.34
n2.0
o2
n-1.55
o5
o0
v0
n-0.821
n2.0
o2
o2
o2
o2
n-0.005409938
o5
v0
n3.0
o5
v1
n0.97
o0
o2
n-736.0
v1
n831.68
o44
o0
o2
n-368.0
o5
o0
v1
n-1.13
n2.0
o2
n-14.0
o5
o0
v0
n-1.08
n2.0
o2
o2
o2
o2
n-0.445528
o5
v0
n3.0
o5
v1
n2.8
o0
o2
n-1.24
v1
n0.3286
o44
o0
o2
n-1.44
o5
o0
v0
n-0.791
n2.0
o2
n-0.62
o5
o0
v1
n-0.265
n2.0
O9 0
o54
39
o2
o2
n0.45131601899999996
v0
o5
v1
n-1.21
o2
o2
n-5.22584
v0
o44
o16
o5
v0
n2.0
o2
o2
n-0.0441040236
o5
v0
n3.0
o5
v1
n-1.42
o2
o2
n-0.52320551
v0
o5
v1
n-1.59
o2
o2
n-0.034300116000000026
o5
v0
n2.0
o5
v1
n-0.94
o2
o2
o2
n3.9817143680000004
o5
v0
n3.0
o5
v1
n0.97
o44
o0
o2
n-14.0
o5
o0
v0
n-1.08
n2.0
o2
n-368.0
o5
o0
v1
n-1.13
n2.0
o2
o2
o2
n2.11048962
v0
o5
v1
n2.08
o44
o0
o2
n-1.11
o5
o0
v1
n-0.34
n2.0
o2
n-1.55
o5
o0
v0
n-0.821
n2.0
o2
o2
o2
n0.01972152
v0
o5
v1
n-1.3
o44
o0
o2
n-1.87
o5
o0
v1
n-1.05
n2.0
o2
n-1.9
o5
o0
v0
n-1.51
n2.0
o2
o2
o2
n5.440142103000001
v0
o5
v1
n-0.1299999999999999
o44
o0
o2
n-1.02
o5
o0
v0
n-0.705
n2.0
o2
n-0.62
o5
o0
v1
n-0.847
n2.0
o2
o2
o2
n0.35123088
v0
o5
v1
n0.7
o44
o0
o2
n-1.87
o5
o0
v1
n-1.05
n2.0
o2
n-1.9
o5
o0
v0
n-1.51
n2.0
o2
o2
o2
n0.55245472
o5
v0
n3.0
o5
v1
n2.8
o44
o0
o2
n-1.44
o5
o0
v0
n-0.791
n2.0
o2
n-0.62
o5
o0
v1
n-0.265
n2.0
o2
o2
o2
n0.0005766802290000005
o5
v0
n7.0
o5
v1
n-1.03
o44
o2
n-1.0
v0
o2
o2
o2
n0.00015742919580000016
o5
v0
n3.0
o5
v1
n-1.03
o44
o0
o2
n-14.0
o5
o0
v0
n-1.08
n2.0
o2
n-368.0
o5
o0
v1
n-1.13
n2.0
o2
o2
o2
n0.08432476800000001
o5
v0
n2.0
o5
v1
n3.15
o44
o0
o2
n-1.63
o5
o0
v0
n-1.64
n2.0
o2
n-0.66
o5
o0
v1
n-0.36
n2.0
o2
o2
o2
n-2.1355873344000003
v0
o5
v1
n0.08000000000000007
o44
o0
o2
n-1.11
o5
o0
v1
n-0.34
n2.0
o2
n-1.55
o5
o0
v0
n-0.821
n2.0
o2
o2
o2
n-4.1463988
v0
o5
v1
n1.87
o44
o0
o2
n-1.02
o5
o0
v0
n-0.705
n2.0
o2
n-0.62
o5
o0
v1
n-0.847
n2.0
o2
o2
o2
n-0.432643554
o5
v0
n2.0
o5
v1
n1.15
o44
o0
o2
n-1.63
o5
o0
v0
n-1.64
n2.0
o2
n-0.66
o5
o0
v1
n-0.36
n2.0
o2
o2
o2
n-5.554751999999999
o5
v0
n2.0
o5
v1
n0.3999999999999999
o44
o16
o5
v0
n2.0
o2
o2
o2
n-0.06248006928000001
o5
v0
n2.0
o5
v1
n-1.27
o44
o2
n-1.0
v0
o2
o2
o2
n-2.2454611199999994
o5
v0
n3.0
o5
v1
n0.7999999999999998
o44
o0
o2
n-1.44
o5
o0
v0
n-0.791
n2.0
o2
n-0.62
o5
o0
v1
n-0.265
n2.0
o2
o2
o2
n-5.491305600000001
o5
v0
n3.0
o5
v1
n0.20000000000000018
o44
o16
o5
v0
n2.0
o2
o2
o2
o2
n1.5468732159999998
o5
v0
n3.0
o5
v1
n1.7999999999999998
o0
v1
n-0.265
o44
o0
o2
n-1.44
o5
o0
v0
n-0.791
n2.0
o2
n-0.62
o5
o0
v1
n-0.265
n2.0
o2
o2
o2
o2
n0.26562301920000003
o5
v0
n2.0
o5
v1
n2.15
o0
v1
n-0.36
o44
o0
o2
n-1.63
o5
o0
v0
n-1.64
n2.0
o2
n-0.66
o5
o0
v1
n-0.36
n2.0
o2
o2
o2
o2
n4.389818409600001
v0
o5
v1
n1.08
o0
v1
n-0.34
o44
o0
o2
n-1.11
o5
o0
v1
n-0.34
n2.0
o2
n-1.55
o5
o0
v0
n-0.821
n2.0
o2
o2
o2
o2
n6.253036900000001
v0
o5
v1
n0.8700000000000001
o0
o2
n-1.24
v1
n1.0502799999999999
o44
o0
o2
n-1.02
o5
o0
v0
n-0.705
n2.0
o2
n-0.62
o5
o0
v1
n-0.847
n2.0
o2
o2
o2
o2
n3.86226293696
o5
v0
n3.0
o5
v1
n-0.030000000000000027
o0
v1
n-1.13
o44
o0
o2
n-14.0
o5
o0
v0
n-1.08
n2.0
o2
n-368.0
o5
o0
v1
n-1.13
n2.0
o2
o2
o2
o2
n0.24586161599999998
v0
o5
v1
n-0.30000000000000004
o0
v1
n-1.05
o44
o0
o2
n-1.87
o5
o0
v1
n-1.05
n2.0
o2
n-1.9
o5
o0
v0
n-1.51
n2.0
o2
o2
o2
o2
n-0.00524763986
o5
v0
n3.0
o5
v1
n-0.030000000000000027
o0
o2
n-736.0
v1
n831.68
o44
o0
o2
n-14.0
o5
o0
v0
n-1.08
n2.0
o2
n-368.0
o5
o0
v1
n-1.13
n2.0
o2
o2
o2
o2
n-1.2474783999999999
o5
v0
n3.0
o5
v1
n1.7999999999999998
o0
o2
n-1.24
v1
n0.3286
o44
o0
o2
n-1.44
o5
o0
v0
n-0.791
n2.0
o2
n-0.62
o5
o0
v1
n-0.265
n2.0
o2
o2
o2
o2
n-0.06573839999999999
v0
o5
v1
n-0.30000000000000004
o0
o2
n-3.74
v1
n3.9270000000000005
o44
o0
o2
n-1.87
o5
o0
v1
n-1.05
n2.0
o2
n-1.9
o5
o0
v0
n-1.51
n2.0
o2
o2
o2
o2
n-0.20122956
o5
v0
n2.0
o5
v1
n2.15
o0
o2
n-1.32
v1
n0.4752
o44
o0
o2
n-1.63
o5
o0
v0
n-1.64
n2.0
o2
n-0.66
o5
o0
v1
n-0.36
n2.0
o2
o2
o2
o2
n-7.753765756000001
v0
o5
v1
n0.8700000000000001
o0
v1
n-0.847
o44
o0
o2
n-1.02
o5
o0
v0
n-0.705
n2.0
o2
n-0.62
o5
o0
v1
n-0.847
n2.0
o2
o2
o2
o2
n-1.97739568
v0
o5
v1
n1.08
o0
o2
n-2.22
v1
n0.7548000000000001
o44
o0
o2
n-1.11
o5
o0
v1
n-0.34
n2.0
o2
n-1.55
o5
o0
v0
n-0.821
n2.0
o2
o2
o2
o2
o2
n3.9817143680000004
o5
v0
n3.0
o5
v1
n0.97
o0
v1
n-1.13
o0
o2
n-736.0
v1
n831.68
o44
o0
o2
n-14.0
o5
o0
v0
n-1.08
n2.0
o2
n-368.0
o5
o0
v1
n-1.13
n2.0
o2
o2
o2
o2
o2
n2.11048962
v0
o5
v1
n2.08
o0
v1
n-0.34
o0
o2
n-2.22
v1
n0.7548000000000001
o44
o0
o2
n-1.11
o5
o0
v1
n-0.34
n2.0
o2
n-1.55
o5
o0
v0
n-0.821
n2.0
o2
o2
o2
o2
o2
n0.35123088
v0
o5
v1
n0.7
o0
v1
n-1.05
o0
o2
n-3.74
v1
n3.9270000000000005
o44
o0
o2
n-1.87
o5
o0
v1
n-1.05
n2.0
o2
n-1.9
o5
o0
v0
n-1.51
n2.0
o2
o2
o2
o2
o2
n0.55245472
o5
v0
n3.0
o5
v1
n2.8
o0
v1
n-0.265
o0
o2
n-1.24
v1
n0.3286
o44
o0
o2
n-1.44
o5
o0
v0
n-0.791
n2.0
o2
n-0.62
o5
o0
v1
n-0.265
n2.0
o2
o2
o2
o2
o2
n0.08432476800000001
o5
v0
n2.0
o5
v1
n3.15
o0
v1
n-0.36
o0
o2
n-1.32
v1
n0.4752
o44
o0
o2
n-1.63
o5
o0
v0
n-1.64
n2.0
o2
n-0.66
o5
o0
v1
n-0.36
n2.0
o2
o2
o2
o2
o2
n-4.1463988
v0
o5
v1
n1.87
o0
v1
n-0.847
o0
o2
n-1.24
v1
n1.0502799999999999
o44
o0
o2
n-1.02
o5
o0
v0
n-0.705
n2.0
o2
n-0.62
o5
o0
v1
n-0.847
n2.0
O10 0
o54
39
o2
n0.1202704
o5
v0
n3.0
o2
n0.8867889999999999
o5
v1
n-0.5900000000000001
o2
n-2.1491239
o5
v1
n-0.20999999999999996
o2
o2
n0.31502874
o5
v1
n-0.42000000000000004
o5
v0
n2.0
o2
o2
n6.253036900000001
o5
v1
n0.8700000000000001
o44
o0
o2
n-1.02
o5
o0
v0
n-0.705
n2.0
o2
n-0.62
o5
o0
v1
n-0.847
n2.0
o2
o2
n-1.1433372
v0
o5
v1
n0.06000000000000005
o2
o2
n-5.22584
v1
o44
o16
o5
v0
n2.0
o2
o2
n-0.06573839999999999
o5
v1
n-0.30000000000000004
o44
o0
o2
n-1.87
o5
o0
v1
n-1.05
n2.0
o2
n-1.9
o5
o0
v0
n-1.51
n2.0
o2
o2
n-1.97739568
o5
v1
n1.08
o44
o0
o2
n-1.11
o5
o0
v1
n-0.34
n2.0
o2
n-1.55
o5
o0
v0
n-0.821
n2.0
o2
o2
o2
n0.462815328
v0
o5
v1
n-0.27
o44
o2
n-1.0
v0
o2
o2
o2
n7.935359999999999
o5
v1
n1.4
o5
v0
n3.0
o44
o16
o5
v0
n2.0
o2
o2
o2
n2.11048962
o5
v1
n2.08
o0
v1
n-0.34
o44
o0
o2
n-1.11
o5
o0
v1
n-0.34
n2.0
o2
n-1.55
o5
o0
v0
n-0.821
n2.0
o2
o2
o2
n9.152176
o5
v1
n1.2000000000000002
o5
v0
n4.0
o44
o16
o5
v0
n2.0
o2
o2
o2
n0.0192226743
o5
v1
n-0.030000000000000027
o5
v0
n7.0
o44
o2
n-1.0
v0
o2
o2
o2
n10.45168
v1
o5
v0
n2.0
o44
o16
o5
v0
n2.0
o2
o2
o2
n0.35123088
o5
v1
n0.7
o0
v1
n-1.05
o44
o0
o2
n-1.87
o5
o0
v1
n-1.05
n2.0
o2
n-1.9
o5
o0
v0
n-1.51
n2.0
o2
o2
o2
n-4.1463988
o5
v1
n1.87
o0
v1
n-0.847
o44
o0
o2
n-1.02
o5
o0
v0
n-0.705
n2.0
o2
n-0.62
o5
o0
v1
n-0.847
n2.0
o2
o2
o2
n-0.231407664
o5
v1
n-0.27
o5
v0
n2.0
o44
o2
n-1.0
v0
o2
o2
o2
n-0.01574291958
o5
v1
n-0.030000000000000027
o5
v0
n2.0
o44
o0
o2
n-14.0
o5
o0
v0
n-1.08
n2.0
o2
n-368.0
o5
o0
v1
n-1.13
n2.0
o2
o2
o2
n-7.935359999999999
v0
o5
v1
n1.4
o44
o16
o5
v0
n2.0
o2
o2
o2
n-13.728264
o5
v1
n1.2000000000000002
o5
v0
n2.0
o44
o16
o5
v0
n2.0
o2
o2
o2
n-0.1345587201
o5
v1
n-0.030000000000000027
o5
v0
n6.0
o44
o2
n-1.0
v0
o2
o2
o2
n-0.40245912
v0
o5
v1
n2.15
o44
o0
o2
n-1.63
o5
o0
v0
n-1.64
n2.0
o2
n-0.66
o5
o0
v1
n-0.36
n2.0
o2
o2
o2
n-3.7424351999999996
o5
v1
n1.7999999999999998
o5
v0
n2.0
o44
o0
o2
n-1.44
o5
o0
v0
n-0.791
n2.0
o2
n-0.62
o5
o0
v1
n-0.265
n2.0
o2
o2
o2
o2
n0.16864953600000002
v0
o5
v1
n3.15
o0
v1
n-0.36
o44
o0
o2
n-1.63
o5
o0
v0
n-1.64
n2.0
o2
n-0.66
o5
o0
v1
n-0.36
n2.0
o2
o2
o2
o2
n11.945143104000001
o5
v1
n0.97
o5
v0
n2.0
o0
v1
n-1.13
o44
o0
o2
n-14.0
o5
o0
v0
n-1.08
n2.0
o2
n-368.0
o5
o0
v1
n-1.13
n2.0
o2
o2
o2
o2
n6.253036900000001
v0
o5
v1
n0.8700000000000001
o0
o2
n-2.04
v0
n1.4382
o44
o0
o2
n-1.02
o5
o0
v0
n-0.705
n2.0
o2
n-0.62
o5
o0
v1
n-0.847
n2.0
o2
o2
o2
o2
n1.65736416
o5
v1
n2.8
o5
v0
n2.0
o0
v1
n-0.265
o44
o0
o2
n-1.44
o5
o0
v0
n-0.791
n2.0
o2
n-0.62
o5
o0
v1
n-0.265
n2.0
o2
o2
o2
o2
n-0.00524763986
o5
v1
n-0.030000000000000027
o5
v0
n3.0
o0
o2
n-28.0
v0
n30.240000000000002
o44
o0
o2
n-14.0
o5
o0
v0
n-1.08
n2.0
o2
n-368.0
o5
o0
v1
n-1.13
n2.0
o2
o2
o2
o2
n-1.2474783999999999
o5
v1
n1.7999999999999998
o5
v0
n3.0
o0
o2
n-2.88
v0
n2.27808
o44
o0
o2
n-1.44
o5
o0
v0
n-0.791
n2.0
o2
n-0.62
o5
o0
v1
n-0.265
n2.0
o2
o2
o2
o2
n-0.06573839999999999
v0
o5
v1
n-0.30000000000000004
o0
o2
n-3.8
v0
n5.7379999999999995
o44
o0
o2
n-1.87
o5
o0
v1
n-1.05
n2.0
o2
n-1.9
o5
o0
v0
n-1.51
n2.0
o2
o2
o2
o2
n-0.20122956
o5
v1
n2.15
o5
v0
n2.0
o0
o2
n-3.26
v0
n5.346399999999999
o44
o0
o2
n-1.63
o5
o0
v0
n-1.64
n2.0
o2
n-0.66
o5
o0
v1
n-0.36
n2.0
o2
o2
o2
o2
n-1.97739568
v0
o5
v1
n1.08
o0
o2
n-3.1
v0
n2.5451
o44
o0
o2
n-1.11
o5
o0
v1
n-0.34
n2.0
o2
n-1.55
o5
o0
v0
n-0.821
n2.0
o2
o2
o2
o2
o2
n3.9817143680000004
o5
v1
n0.97
o5
v0
n3.0
o0
v1
n-1.13
o0
o2
n-28.0
v0
n30.240000000000002
o44
o0
o2
n-14.0
o5
o0
v0
n-1.08
n2.0
o2
n-368.0
o5
o0
v1
n-1.13
n2.0
o2
o2
o2
o2
o2
n2.11048962
v0
o5
v1
n2.08
o0
v1
n-0.34
o0
o2
n-3.1
v0
n2.5451
o44
o0
o2
n-1.11
o5
o0
v1
n-0.34
n2.0
o2
n-1.55
o5
o0
v0
n-0.821
n2.0
o2
o2
o2
o2
o2
n0.35123088
v0
o5
v1
n0.7
o0
v1
n-1.05
o0
o2
n-3.8
v0
n5.7379999999999995
o44
o0
o2
n-1.87
o5
o0
v1
n-1.05
n2.0
o2
n-1.9
o5
o0
v0
n-1.51
n2.0
o2
o2
o2
o2
o2
n0.55245472
o5
v1
n2.8
o5
v0
n3.0
o0
v1
n-0.265
o0
o2
n-2.88
v0
n2.27808
o44
o0
o2
n-1.44
o5
o0
v0
n-0.791
n2.0
o2
n-0.62
o5
o0
v1
n-0.265
n2.0
o2
o2
o2
o2
o2
n0.08432476800000001
o5
v1
n3.15
o5
v0
n2.0
o0
v1
n-0.36
o0
o2
n-3.26
v0
n5.346399999999999
o44
o0
o2
n-1.63
o5
o0
v0
n-1.64
n2.0
o2
n-0.66
o5
o0
v1
n-0.36
n2.0
o2
o2
o2
o2
o2
n-4.1463988
v0
o5
v1
n1.87
o0
v1
n-0.847
o0
o2
n-2.04
v0
n1.4382
o44
o0
o2
n-1.02
o5
o0
v0
n-0.705
n2.0
o2
n-0.62
o5
o0
v1
n-0.847
n2.0
O11 0
o0
o54
5
o2
n2.3014
o5
o0
o16
o3
n1
v1
n1
n0.382
o2
n-0.08549
o5
o0
o16
o3
n1
v1
n1
n0.93
o2
n2.055
o5
o0
o16
o3
n1
v1
n1
n1.48
o2
n-2.883
o5
o0
o16
o3
n1
v1
n1
n2.1
o2
n1.686
o5
o0
o16
o3
n1
v1
n1
n2.95
n1.0
O12 0
o44
o54
5
o2
n-3.0498
o5
o0
o16
o3
n1
v1
n1
n0.414
o2
n-7.1199
o5
o0
o16
o3
n1
v1
n1
n1.276
o2
n-23.067
o5
o0
o16
o3
n1
v1
n1
n3.63
o2
n-56.11
o5
o0
o16
o3
n1
v1
n1
n7.84
o2
n-127.8
o5
o0
o16
o3
n1
v1
n1
n16.9
O13 0
n0.0
x2
0 1.00000001
1 1.0
r
b
3
3
k1
0
G0 2
0 0
1 4.0000956
G1 1
0 0
G2 1
0 0
G3 1
1 0
G4 1
1 0
G5 2
0 0
1 0
G6 2
0 0
1 0
G7 2
0 0
1 0
G8 2
0 0
1 0
G9 2
0 0
1 0
G10 2
0 0
1 0
G11 1
1 0
G12 1
1 0
